54814
38, 32, 41, 5, 37, 35, 24, 50, 20, 7, 40, 51, 13, 43, 3, 6, 28, 55, 26, 49, 23, 21, 29, 10, 22, 39, 46, 36, 15, 16, 52, 45, 42, 33, 1, 27, 31, 25, 11, 2, 14, 9, 12, 18, 30, 4, 47, 54, 34, 53, 17, 48, 19, 44, 8
